\ENCODING=ISO-8859-1
\Problem name: ilog.cplex

Minimize
 obj: 0.333333333333333 D0 + 0.333333333333333 D1 + 0.333333333333333 D2
Subject To
 C13(0):           D0 >= 0
 C1(0,0,1,0):      P(0,0,1,0) + P(1,0,0,0)  = 1
 C3(0,0,1,0):      - 18.4 P(1,0,0,0) + W(0,0) - W(1,0) - 0.5 M(1,0,1)
                   - 18.4 M(1,0,0) - 18.4 M(1,0,2) >= -31.2
 C4(0,0,1,0):      - 18.4 P(1,0,0,0) + W(0,0) - W(1,0) - 0.5 M(1,0,1)
                   - 18.4 M(0,0,0) - 18.4 M(0,0,1) >= -31.2
 C16(0,0,1,0):     - 18.4 P(1,0,0,0) + W(0,0) - W(1,0) - 0.5 M(1,0,1)
                   + 18.4 PA(0,0) >= -12.8
 C5(0,0,1,0):      - 18.4 P(1,0,0,0) + W(0,0) - W(1,0) - 0.5 M(1,0,1) >= -17.8
 C15(0,0,1,0):     D0 - 18.4 P(0,0,1,0) - W(1,0) - 0.5 M(1,0,1) - 18.4 M(1,0,2)
                   - 18.4 M(0,0,1) - 18.4 PA(1,0) >= -74
 C1(0,0,2,0):      P(0,0,2,0) + P(2,0,0,0)  = 1
 C3(0,0,2,0):      W(0,0) - 18.4 P(2,0,0,0) - W(2,0) - 0.5 M(2,0,1)
                   - 18.4 M(2,0,0) - 18.4 M(2,0,2) >= -34.2
 C4(0,0,2,0):      W(0,0) - 18.4 M(0,0,0) - 18.4 M(0,0,1) - 18.4 P(2,0,0,0)
                   - W(2,0) - 0.5 M(2,0,1) >= -34.2
 C16(0,0,2,0):     W(0,0) + 18.4 PA(0,0) - 18.4 P(2,0,0,0) - W(2,0)
                   - 0.5 M(2,0,1) >= -15.8
 C5(0,0,2,0):      W(0,0) - 18.4 P(2,0,0,0) - W(2,0) - 0.5 M(2,0,1) >= -17.8
 C15(0,0,2,0):     D0 - 18.4 M(0,0,1) - 18.4 P(0,0,2,0) - W(2,0) - 0.5 M(2,0,1)
                   - 18.4 M(2,0,2) - 18.4 PA(2,0) >= -77
 C7(0,0):          M(0,0,0) + M(0,0,1) + M(0,0,2)  = 1
 C8(0,0):          M(0,0,2)  = 0
 C17(0,0):         PA(0,0) <= 0
 C14(0,0):         D0 - W(0,0) >= 0
 C11(0,0,1,0):     - 18.4 P(1,0,0,0) - W(1,0) - 0.5 M(1,0,1) + B(0,0)
                   - 18.4 L(1,0) - 18.4 L(0,0) >= -49.5
 C12(0,0,1,0,2,0): - 18.4 M(1,0,1) + 18.4 P(0,0,2,0) - W(2,0) - 0.5 M(2,0,1)
                   - 18.4 M(2,0,2) - 18.4 PA(2,0) - 36.8 P(1,0,2,0) + B(0,0)
                   - 18.4 L(1,0) - 18.4 L(0,0) >= -125.5
 C20(0,0,1):       - 18.4 P(1,0,0,0) - 18.4 L(1,0) + R(0,0) >= -35.8
 C11(0,0,2,0):     - 18.4 P(2,0,0,0) - W(2,0) - 0.5 M(2,0,1) + B(0,0)
                   - 18.4 L(0,0) - 18.4 L(2,0) >= -52.5
 C12(0,0,2,0,1,0): 18.4 P(0,0,1,0) - W(1,0) - 0.5 M(1,0,1) - 18.4 M(1,0,2)
                   - 18.4 PA(1,0) - 36.8 P(2,0,1,0) - 18.4 M(2,0,1) + B(0,0)
                   - 18.4 L(0,0) - 18.4 L(2,0) >= -122.5
 C20(0,0,2):       - 18.4 P(2,0,0,0) + R(0,0) - 18.4 L(2,0) >= -35.8
 C18(0,0):         B(0,0) - 18.4 L(0,0) - 1.3 R(0,0) - 1.3 R(0,1) - 1.3 R(0,2)
                   >= -18.4
 C11(0,1,1,0):     - 18.4 P(1,0,0,0) - W(1,0) - 0.5 M(1,0,1) + B(0,1)
                   - 18.4 L(1,1) - 18.4 L(0,1) >= -49.5
 C12(0,1,1,0,2,0): - 18.4 M(1,0,1) + 18.4 P(0,0,2,0) - W(2,0) - 0.5 M(2,0,1)
                   - 18.4 M(2,0,2) - 18.4 PA(2,0) - 36.8 P(1,0,2,0) + B(0,1)
                   - 18.4 L(1,1) - 18.4 L(0,1) >= -125.5
 C19(0,1,1):       B(0,1) - 18.4 L(0,1) >= -17.7
 C11(0,1,2,0):     - 18.4 P(2,0,0,0) - W(2,0) - 0.5 M(2,0,1) + B(0,1)
                   - 18.4 L(0,1) - 18.4 L(2,1) >= -52.5
 C12(0,1,2,0,1,0): 18.4 P(0,0,1,0) - W(1,0) - 0.5 M(1,0,1) - 18.4 M(1,0,2)
                   - 18.4 PA(1,0) - 36.8 P(2,0,1,0) - 18.4 M(2,0,1) + B(0,1)
                   - 18.4 L(0,1) - 18.4 L(2,1) >= -122.5
 C18(0,1):         - 1.3 R(0,0) - 1.3 R(0,1) - 1.3 R(0,2) + B(0,1)
                   - 18.4 L(0,1) >= -18.4
 C11(0,2,1,0):     - 18.4 P(1,0,0,0) - W(1,0) - 0.5 M(1,0,1) + B(0,2)
                   - 18.4 L(1,2) - 18.4 L(0,2) >= -49.5
 C12(0,2,1,0,2,0): - 18.4 M(1,0,1) + 18.4 P(0,0,2,0) - W(2,0) - 0.5 M(2,0,1)
                   - 18.4 M(2,0,2) - 18.4 PA(2,0) - 36.8 P(1,0,2,0) + B(0,2)
                   - 18.4 L(1,2) - 18.4 L(0,2) >= -125.5
 C11(0,2,2,0):     - 18.4 P(2,0,0,0) - W(2,0) - 0.5 M(2,0,1) + B(0,2)
                   - 18.4 L(0,2) - 18.4 L(2,2) >= -52.5
 C12(0,2,2,0,1,0): 18.4 P(0,0,1,0) - W(1,0) - 0.5 M(1,0,1) - 18.4 M(1,0,2)
                   - 18.4 PA(1,0) - 36.8 P(2,0,1,0) - 18.4 M(2,0,1) + B(0,2)
                   - 18.4 L(0,2) - 18.4 L(2,2) >= -122.5
 C18(0,2):         - 1.3 R(0,0) - 1.3 R(0,1) - 1.3 R(0,2) + B(0,2)
                   - 18.4 L(0,2) >= -18.4
 C6(0):            W(0,0) - B(0,0) - 0.3 R(0,0) - B(0,1) - B(0,2) >= 0
 C9(0):            L(0,0) + L(0,1) + L(0,2)  = 1
 C10(0):           L(0,1) >= 0
 C13(1):           D1 >= 0
 C1(1,0,0,0):      P(0,0,1,0) + P(1,0,0,0)  = 1
 C3(1,0,0,0):      - 18.4 P(0,0,1,0) - W(0,0) + W(1,0) - 18.4 M(0,0,0)
                   - 18.4 M(0,0,2) >= -30.2
 C4(1,0,0,0):      - 18.4 P(0,0,1,0) - W(0,0) + W(1,0) - 18.4 M(1,0,1)
                   - 18.4 M(1,0,0) >= -30.2
 C16(1,0,0,0):     - 18.4 P(0,0,1,0) - W(0,0) + W(1,0) + 18.4 PA(1,0) >= -11.8
 C5(1,0,0,0):      - 18.4 P(0,0,1,0) - W(0,0) + W(1,0) >= -18.4
 C15(1,0,0,0):     D1 - 18.4 P(1,0,0,0) - W(0,0) - 18.4 M(1,0,1) - 18.4 PA(0,0)
                   - 18.4 M(0,0,2) >= -78.6
 C1(1,0,2,0):      P(2,0,1,0) + P(1,0,2,0)  = 1
 C3(1,0,2,0):      W(1,0) - 18.4 P(2,0,1,0) - W(2,0) - 0.5 M(2,0,1)
                   - 18.4 M(2,0,0) - 18.4 M(2,0,2) >= -34.2
 C4(1,0,2,0):      W(1,0) - 18.4 M(1,0,1) - 18.4 M(1,0,0) - 18.4 P(2,0,1,0)
                   - W(2,0) - 0.5 M(2,0,1) >= -34.2
 C16(1,0,2,0):     W(1,0) + 18.4 PA(1,0) - 18.4 P(2,0,1,0) - W(2,0)
                   - 0.5 M(2,0,1) >= -15.8
 C5(1,0,2,0):      W(1,0) - 18.4 P(2,0,1,0) - W(2,0) - 0.5 M(2,0,1) >= -17.8
 C15(1,0,2,0):     D1 + 18.4 P(1,0,0,0) - 18.4 M(1,0,1) + 18.4 P(0,0,2,0)
                   - W(2,0) - 0.5 M(2,0,1) - 18.4 M(2,0,2) - 18.4 PA(2,0)
                   - 36.8 P(1,0,2,0) >= -82.6
 C7(1,0):          M(1,0,1) + M(1,0,0) + M(1,0,2)  = 1
 C8(1,0):          M(1,0,2)  = 1
 C17(1,0):         PA(1,0) <= 1
 C14(1,0):         D1 - W(1,0) - 0.5 M(1,0,1) >= -6.6
 C11(1,0,0,0):     - 18.4 P(0,0,1,0) - W(0,0) - 18.4 L(1,0) - 18.4 L(0,0)
                   + B(1,0) >= -48.5
 C12(1,0,0,0,2,0): - 18.4 P(0,0,1,0) - 18.4 M(0,0,1) - 18.4 P(0,0,2,0) - W(2,0)
                   - 0.5 M(2,0,1) - 18.4 M(2,0,2) - 18.4 PA(2,0) - 18.4 L(1,0)
                   - 18.4 L(0,0) + B(1,0) >= -125.5
 C19(1,0,0):       - 18.4 L(1,0) + B(1,0) >= -17.1
 C11(1,0,2,0):     - 18.4 P(2,0,1,0) - W(2,0) - 0.5 M(2,0,1) - 18.4 L(1,0)
                   - 18.4 L(2,0) + B(1,0) >= -52.5
 C12(1,0,2,0,0,0): - W(0,0) - 18.4 PA(0,0) - 18.4 P(2,0,1,0) - 18.4 P(2,0,0,0)
                   - 18.4 M(2,0,1) - 18.4 M(0,0,2) - 18.4 L(1,0) - 18.4 L(2,0)
                   + B(1,0) >= -121.5
 C18(1,0):         - 18.4 L(1,0) + B(1,0) - 0.7 R(1,0) - 0.7 R(1,1)
                   - 0.7 R(1,2) >= -18.4
 C11(1,1,0,0):     - 18.4 P(0,0,1,0) - W(0,0) - 18.4 L(1,1) - 18.4 L(0,1)
                   + B(1,1) >= -48.5
 C12(1,1,0,0,2,0): - 18.4 P(0,0,1,0) - 18.4 M(0,0,1) - 18.4 P(0,0,2,0) - W(2,0)
                   - 0.5 M(2,0,1) - 18.4 M(2,0,2) - 18.4 PA(2,0) - 18.4 L(1,1)
                   - 18.4 L(0,1) + B(1,1) >= -125.5
 C20(1,1,0):       - 18.4 P(0,0,1,0) - 18.4 L(0,1) + R(1,1) >= -35.8
 C11(1,1,2,0):     - 18.4 P(2,0,1,0) - W(2,0) - 0.5 M(2,0,1) - 18.4 L(1,1)
                   - 18.4 L(2,1) + B(1,1) >= -52.5
 C12(1,1,2,0,0,0): - W(0,0) - 18.4 PA(0,0) - 18.4 P(2,0,1,0) - 18.4 P(2,0,0,0)
                   - 18.4 M(2,0,1) - 18.4 M(0,0,2) - 18.4 L(1,1) - 18.4 L(2,1)
                   + B(1,1) >= -121.5
 C20(1,1,2):       - 18.4 P(2,0,1,0) - 18.4 L(2,1) + R(1,1) >= -35.8
 C18(1,1):         - 18.4 L(1,1) - 0.7 R(1,0) - 0.7 R(1,1) - 0.7 R(1,2)
                   + B(1,1) >= -18.4
 C11(1,2,0,0):     - 18.4 P(0,0,1,0) - W(0,0) - 18.4 L(1,2) - 18.4 L(0,2)
                   + B(1,2) >= -48.5
 C12(1,2,0,0,2,0): - 18.4 P(0,0,1,0) - 18.4 M(0,0,1) - 18.4 P(0,0,2,0) - W(2,0)
                   - 0.5 M(2,0,1) - 18.4 M(2,0,2) - 18.4 PA(2,0) - 18.4 L(1,2)
                   - 18.4 L(0,2) + B(1,2) >= -125.5
 C11(1,2,2,0):     - 18.4 P(2,0,1,0) - W(2,0) - 0.5 M(2,0,1) - 18.4 L(1,2)
                   - 18.4 L(2,2) + B(1,2) >= -52.5
 C12(1,2,2,0,0,0): - W(0,0) - 18.4 PA(0,0) - 18.4 P(2,0,1,0) - 18.4 P(2,0,0,0)
                   - 18.4 M(2,0,1) - 18.4 M(0,0,2) - 18.4 L(1,2) - 18.4 L(2,2)
                   + B(1,2) >= -121.5
 C18(1,2):         - 18.4 L(1,2) - 0.7 R(1,0) - 0.7 R(1,1) - 0.7 R(1,2)
                   + B(1,2) >= -18.4
 C6(1):            W(1,0) - B(1,0) - 0.3 R(1,1) - B(1,1) - B(1,2) >= 0
 C9(1):            L(1,0) + L(1,1) + L(1,2)  = 1
 C10(1):           L(1,1) >= 1
 C13(2):           D2 >= 0
 C1(2,0,0,0):      P(0,0,2,0) + P(2,0,0,0)  = 1
 C3(2,0,0,0):      - W(0,0) - 18.4 M(0,0,0) - 18.4 P(0,0,2,0) + W(2,0)
                   - 18.4 M(0,0,2) >= -30.2
 C4(2,0,0,0):      - W(0,0) - 18.4 P(0,0,2,0) + W(2,0) - 18.4 M(2,0,1)
                   - 18.4 M(2,0,0) >= -30.2
 C16(2,0,0,0):     - W(0,0) - 18.4 P(0,0,2,0) + W(2,0) + 18.4 PA(2,0) >= -11.8
 C5(2,0,0,0):      - W(0,0) - 18.4 P(0,0,2,0) + W(2,0) >= -18.4
 C15(2,0,0,0):     D2 - W(0,0) - 18.4 PA(0,0) - 18.4 P(2,0,0,0) - 18.4 M(2,0,1)
                   - 18.4 M(0,0,2) >= -70
 C1(2,0,1,0):      P(2,0,1,0) + P(1,0,2,0)  = 1
 C3(2,0,1,0):      - W(1,0) - 0.5 M(1,0,1) - 18.4 M(1,0,0) - 18.4 M(1,0,2)
                   + W(2,0) - 18.4 P(1,0,2,0) >= -31.2
 C4(2,0,1,0):      - W(1,0) - 0.5 M(1,0,1) + W(2,0) - 18.4 M(2,0,1)
                   - 18.4 M(2,0,0) - 18.4 P(1,0,2,0) >= -31.2
 C16(2,0,1,0):     - W(1,0) - 0.5 M(1,0,1) + W(2,0) + 18.4 PA(2,0)
                   - 18.4 P(1,0,2,0) >= -12.8
 C5(2,0,1,0):      - W(1,0) - 0.5 M(1,0,1) + W(2,0) - 18.4 P(1,0,2,0) >= -17.8
 C15(2,0,1,0):     D2 + 18.4 P(0,0,1,0) - W(1,0) - 0.5 M(1,0,1) - 18.4 M(1,0,2)
                   - 18.4 PA(1,0) - 36.8 P(2,0,1,0) + 18.4 P(2,0,0,0)
                   - 18.4 M(2,0,1) >= -71
 C7(2,0):          M(2,0,1) + M(2,0,0) + M(2,0,2)  = 1
 C8(2,0):          M(2,0,2)  = 1
 C17(2,0):         PA(2,0) <= 1
 C14(2,0):         D2 - W(2,0) - 0.5 M(2,0,1) >= -1
 C11(2,0,0,0):     - W(0,0) - 18.4 P(0,0,2,0) - 18.4 L(0,0) - 18.4 L(2,0)
                   + B(2,0) >= -48.5
 C12(2,0,0,0,1,0): - 18.4 P(0,0,1,0) - W(1,0) - 0.5 M(1,0,1) - 18.4 M(1,0,2)
                   - 18.4 M(0,0,1) - 18.4 PA(1,0) - 18.4 P(0,0,2,0)
                   - 18.4 L(0,0) - 18.4 L(2,0) + B(2,0) >= -122.5
 C19(2,0,0):       - 18.4 L(2,0) + B(2,0) >= -17.1
 C11(2,0,1,0):     - W(1,0) - 0.5 M(1,0,1) - 18.4 P(1,0,2,0) - 18.4 L(1,0)
                   - 18.4 L(2,0) + B(2,0) >= -49.5
 C12(2,0,1,0,0,0): - 18.4 P(1,0,0,0) - W(0,0) - 18.4 M(1,0,1) - 18.4 PA(0,0)
                   - 18.4 P(1,0,2,0) - 18.4 M(0,0,2) - 18.4 L(1,0)
                   - 18.4 L(2,0) + B(2,0) >= -121.5
 C18(2,0):         - 18.4 L(2,0) + B(2,0) - 0.4 R(2,0) - 0.4 R(2,1)
                   - 0.4 R(2,2) >= -18.4
 C11(2,1,0,0):     - W(0,0) - 18.4 P(0,0,2,0) - 18.4 L(0,1) - 18.4 L(2,1)
                   + B(2,1) >= -48.5
 C12(2,1,0,0,1,0): - 18.4 P(0,0,1,0) - W(1,0) - 0.5 M(1,0,1) - 18.4 M(1,0,2)
                   - 18.4 M(0,0,1) - 18.4 PA(1,0) - 18.4 P(0,0,2,0)
                   - 18.4 L(0,1) - 18.4 L(2,1) + B(2,1) >= -122.5
 C11(2,1,1,0):     - W(1,0) - 0.5 M(1,0,1) - 18.4 P(1,0,2,0) - 18.4 L(1,1)
                   - 18.4 L(2,1) + B(2,1) >= -49.5
 C12(2,1,1,0,0,0): - 18.4 P(1,0,0,0) - W(0,0) - 18.4 M(1,0,1) - 18.4 PA(0,0)
                   - 18.4 P(1,0,2,0) - 18.4 M(0,0,2) - 18.4 L(1,1)
                   - 18.4 L(2,1) + B(2,1) >= -121.5
 C19(2,1,1):       - 18.4 L(2,1) + B(2,1) >= -17.7
 C18(2,1):         - 18.4 L(2,1) - 0.4 R(2,0) - 0.4 R(2,1) - 0.4 R(2,2)
                   + B(2,1) >= -18.4
 C11(2,2,0,0):     - W(0,0) - 18.4 P(0,0,2,0) - 18.4 L(0,2) - 18.4 L(2,2)
                   + B(2,2) >= -48.5
 C12(2,2,0,0,1,0): - 18.4 P(0,0,1,0) - W(1,0) - 0.5 M(1,0,1) - 18.4 M(1,0,2)
                   - 18.4 M(0,0,1) - 18.4 PA(1,0) - 18.4 P(0,0,2,0)
                   - 18.4 L(0,2) - 18.4 L(2,2) + B(2,2) >= -122.5
 C11(2,2,1,0):     - W(1,0) - 0.5 M(1,0,1) - 18.4 P(1,0,2,0) - 18.4 L(1,2)
                   - 18.4 L(2,2) + B(2,2) >= -49.5
 C12(2,2,1,0,0,0): - 18.4 P(1,0,0,0) - W(0,0) - 18.4 M(1,0,1) - 18.4 PA(0,0)
                   - 18.4 P(1,0,2,0) - 18.4 M(0,0,2) - 18.4 L(1,2)
                   - 18.4 L(2,2) + B(2,2) >= -121.5
 C18(2,2):         - 18.4 L(2,2) - 0.4 R(2,0) - 0.4 R(2,1) - 0.4 R(2,2)
                   + B(2,2) >= -18.4
 C6(2):            W(2,0) - B(2,0) - B(2,1) - B(2,2) >= 0.3
 C9(2):            L(2,0) + L(2,1) + L(2,2)  = 1
 C10(2):           L(2,1) >= 1
Bounds
 0 <= P(0,0,1,0) <= 1
 0 <= P(1,0,0,0) <= 1
 0 <= M(1,0,1) <= 1
 0 <= M(1,0,0) <= 1
 0 <= M(1,0,2) <= 1
 0 <= M(0,0,0) <= 1
 0 <= M(0,0,1) <= 1
 0 <= PA(0,0) <= 1
 0 <= PA(1,0) <= 1
 0 <= P(0,0,2,0) <= 1
 0 <= P(2,0,1,0) <= 1
 0 <= P(2,0,0,0) <= 1
 0 <= M(2,0,1) <= 1
 0 <= M(2,0,0) <= 1
 0 <= M(2,0,2) <= 1
 0 <= PA(2,0) <= 1
 0 <= P(1,0,2,0) <= 1
 0 <= M(0,0,2) <= 1
 0 <= L(1,0) <= 1
 0 <= L(0,0) <= 1
 0 <= R(0,0) <= 1
 0 <= L(2,0) <= 1
 0 <= R(0,1) <= 1
 0 <= R(0,2) <= 1
 0 <= L(1,1) <= 1
 0 <= L(0,1) <= 1
 0 <= L(2,1) <= 1
 0 <= L(1,2) <= 1
 0 <= L(0,2) <= 1
 0 <= L(2,2) <= 1
 0 <= R(1,0) <= 1
 0 <= R(1,1) <= 1
 0 <= R(1,2) <= 1
 0 <= R(2,0) <= 1
 0 <= R(2,1) <= 1
 0 <= R(2,2) <= 1
Binaries
 P(0,0,1,0)  P(1,0,0,0)  M(1,0,1)  M(1,0,0)  M(1,0,2)  M(0,0,0)  M(0,0,1) 
 PA(0,0)  PA(1,0)  P(0,0,2,0)  P(2,0,1,0)  P(2,0,0,0)  M(2,0,1)  M(2,0,0) 
 M(2,0,2)  PA(2,0)  P(1,0,2,0)  M(0,0,2)  L(1,0)  L(0,0)  R(0,0)  L(2,0) 
 R(0,1)  R(0,2)  L(1,1)  L(0,1)  L(2,1)  L(1,2)  L(0,2)  L(2,2)  R(1,0) 
 R(1,1)  R(1,2)  R(2,0)  R(2,1)  R(2,2) 
End
